
<<< setup


<<< generate

Version identifier: 22.1.1.0 | 2022-11-28 | 9160aff4d
CPXPARAM_TimeLimit                               1800
Tried aggregator 1 time.
MIP Presolve eliminated 14364 rows and 28056 columns.
Reduced MIP has 56113 rows, 28560 columns, and 168504 nonzeros.
Reduced MIP has 28224 binaries, 336 generals, 0 SOSs, and 0 indicators.
Presolve time = 0.03 sec. (73.63 ticks)
Probing time = 0.01 sec. (11.47 ticks)
Tried aggregator 1 time.
Detecting symmetries...
MIP Presolve eliminated 1 rows and 168 columns.
Reduced MIP has 56112 rows, 28392 columns, and 168336 nonzeros.
Reduced MIP has 28056 binaries, 336 generals, 0 SOSs, and 0 indicators.
Presolve time = 0.04 sec. (72.81 ticks)
Probing time = 0.01 sec. (11.43 ticks)
MIP emphasis: balance optimality and feasibility.
MIP search method: dynamic search.
Parallel mode: deterministic, using up to 8 threads.
Root relaxation solution time = 0.07 sec. (158.18 ticks)

        Nodes                                         Cuts/
   Node  Left     Objective  IInf  Best Integer    Best Bound    ItCnt     Gap

      0     0     7334.0000 28056                   7334.0000     3507         
      0     0     7334.0000 18959                 Cuts: 10000    14458         
      0     0     7334.0000 15765                  Cuts: 1487    19278         
      0     0     7334.0000 15888                   Cuts: 248    20556         
      0     0     7334.0000  4481                    Cuts: 28    22773         
      0     0     7334.0000  4623                   Cuts: 459    23821         
Detecting symmetries...
      0     0        cutoff                                      23821         
Elapsed time = 24.33 sec. (45535.95 ticks, tree = 0.01 MB, solutions = 0)

Implied bound cuts applied:  5
Mixed integer rounding cuts applied:  66
Zero-half cuts applied:  20

Root node processing (before b&c):
  Real time             =   24.33 sec. (45536.79 ticks)
Parallel b&c, 8 threads:
  Real time             =    0.00 sec. (0.00 ticks)
  Sync time (average)   =    0.00 sec.
  Wait time (average)   =    0.00 sec.
                          ------------
Total (root+branch&cut) =   24.33 sec. (45536.79 ticks)

<<< solve


<<< no solution

